Route #1: 41 4 10 16 34 21 19 8 27 30 36 22 35 31 2 7 45
Route #2: 15 25 18
Route #3: 43 26 14 11 37 3 6 17 23 9 13 40 20 24
Route #4: 1
Route #5: 29 28 32 42 39 5 33 38 12 44
Route #6: 
cost 860.1610164086522
